tsp_instances/TSP20/instance29.tsp
NODE_COORD_SECTION
0 191 25
1 42 174
2 156 47
3 113 122
4 13 28
5 11 99
6 17 104
7 12 171
8 187 161
9 119 152
10 122 73
11 117 139
12 156 155
13 89 154
14 38 124
15 17 113
16 90 2
17 1 128
18 161 133
19 121 26
