tsp_instances/TSP20/instance29.opt.tour
TOUR_SECTION
1
3
11
4
12
19
9
13
10
14
2
8
18
15
16
7
6
5
17
20
-1